n_res = 6;
rc = [ 13, 15, 18, 14, 14, 13 ];
n_tasks = 101;
d = [ 9, 5, 2, 10, 5, 2, 4, 1, 1, 10, 3, 3, 1, 6, 10, 7, 1, 1, 5, 5, 6, 1, 1, 2, 1, 6, 1, 1, 3, 10, 1, 2, 8, 6, 1, 5, 1, 1, 10, 9, 1, 1, 5, 8, 3, 1, 2, 1, 5, 3, 1, 1, 3, 1, 1, 10, 5, 1, 3, 7, 3, 1, 1, 1, 10, 1, 5, 4, 1, 10, 4, 2, 6, 1, 9, 1, 9, 1, 1, 4, 1, 1, 10, 6, 3, 2, 5, 1, 1, 4, 10, 1, 2, 1, 4, 3, 10, 2, 4, 2, 1 ];
rr = [| 0, 0, 0, 0, 10, 0, 4, 0, 6, 0, 4, 1, 0, 10, 0, 0, 4, 0, 9, 0, 0, 0, 0, 0, 7, 1, 7, 3, 0, 3, 9, 0, 10, 4, 0, 0, 4, 0, 3, 0, 0, 8, 7, 8, 7, 0, 0, 0, 5, 3, 0, 10, 4, 5, 9, 0, 0, 0, 1, 0, 0, 9, 1, 0, 8, 0, 0, 0, 1, 8, 0, 0, 0, 0, 0, 2, 0, 0, 5, 8, 0, 0, 0, 0, 3, 0, 0, 0, 0, 0, 3, 2, 0, 0, 4, 0, 8, 6, 2, 10, 8
      | 2, 0, 0, 10, 0, 0, 2, 9, 4, 0, 4, 1, 0, 5, 7, 0, 6, 0, 0, 6, 6, 0, 8, 3, 0, 0, 0, 0, 10, 0, 0, 0, 5, 10, 2, 0, 10, 4, 0, 0, 0, 0, 0, 0, 10, 0, 3, 0, 0, 9, 10, 4, 1, 0, 5, 4, 0, 9, 3, 5, 7, 4, 0, 0, 0, 0, 0, 1, 9, 0, 0, 0, 0, 9, 0, 5, 9, 0, 8, 0, 5, 3, 0, 1, 0, 2, 9, 0, 6, 4, 10, 0, 0, 7, 1, 0, 4, 6, 0, 0, 10
      | 0, 6, 10, 7, 0, 6, 0, 0, 2, 4, 0, 0, 8, 2, 0, 3, 0, 8, 4, 10, 0, 1, 9, 4, 8, 10, 5, 2, 1, 0, 2, 0, 0, 8, 8, 0, 0, 2, 9, 3, 6, 8, 0, 0, 0, 0, 4, 5, 8, 0, 7, 0, 10, 10, 9, 0, 0, 10, 0, 10, 4, 9, 0, 0, 2, 9, 10, 0, 9, 0, 1, 9, 0, 0, 0, 0, 3, 0, 6, 5, 0, 0, 0, 7, 8, 0, 0, 10, 7, 0, 2, 0, 1, 3, 0, 0, 7, 7, 0, 0, 0
      | 1, 0, 0, 0, 5, 4, 1, 0, 0, 1, 4, 0, 0, 0, 10, 1, 0, 5, 0, 7, 5, 0, 0, 3, 5, 4, 0, 4, 0, 8, 0, 7, 9, 0, 0, 3, 0, 0, 4, 9, 0, 4, 6, 2, 0, 6, 9, 0, 0, 0, 0, 8, 3, 0, 0, 0, 5, 8, 10, 3, 0, 0, 10, 4, 0, 0, 3, 3, 0, 0, 0, 5, 9, 5, 2, 0, 9, 3, 8, 0, 0, 9, 9, 3, 8, 1, 10, 0, 0, 0, 0, 3, 0, 5, 0, 0, 0, 0, 0, 0, 2
      | 5, 5, 9, 0, 0, 5, 0, 3, 0, 3, 0, 7, 0, 0, 9, 0, 4, 4, 0, 8, 9, 0, 5, 0, 6, 0, 0, 9, 6, 0, 8, 0, 0, 0, 0, 6, 4, 5, 3, 3, 2, 3, 0, 0, 0, 0, 5, 0, 0, 0, 0, 0, 1, 8, 7, 0, 0, 0, 0, 6, 0, 10, 3, 2, 1, 0, 0, 0, 0, 0, 7, 0, 0, 8, 10, 10, 0, 0, 0, 9, 3, 0, 10, 2, 0, 10, 0, 0, 0, 0, 4, 4, 7, 5, 0, 0, 5, 1, 0, 7, 0
      | 0, 2, 4, 9, 10, 6, 0, 8, 0, 0, 0, 7, 8, 0, 1, 0, 0, 5, 0, 0, 0, 2, 7, 0, 0, 9, 6, 2, 0, 6, 0, 0, 0, 0, 0, 0, 0, 10, 0, 0, 0, 7, 7, 1, 0, 0, 0, 8, 10, 4, 7, 2, 0, 0, 0, 0, 3, 0, 3, 3, 0, 0, 9, 0, 2, 5, 8, 1, 0, 2, 0, 1, 0, 0, 0, 0, 10, 0, 1, 0, 0, 0, 0, 8, 2, 8, 0, 6, 0, 0, 1, 7, 0, 1, 0, 10, 0, 0, 0, 3, 9 |];
suc = [ { 4, 5, 6, 7 },
	{ 4, 5, 7 },
	{ 4, 5, 7 },
	{ 9, 10, 11 },
	{ 8, 9 },
	{ 9, 10 },
	{ 9 },
	{ 12, 14 },
	{ 13, 14 },
	{ 12, 14, 15 },
	{ 12, 13, 14 },
	{ 17 },
	{ 17, 18, 19 },
	{ 17, 19 },
	{ 16 },
	{ 20, 23 },
	{ 21 },
	{ 22, 23 },
	{ 22 },
	{ 24 },
	{ 25, 26 },
	{ 26, 27 },
	{ 26, 27 },
	{ 30, 31 },
	{ 28, 30 },
	{ 28 },
	{ 28, 29 },
	{ 32 },
	{ 32, 35 },
	{ 33, 34, 35 },
	{ 34 },
	{ 39 },
	{ 36, 37, 38, 39 },
	{ 36, 39 },
	{ 37, 39 },
	{ 41, 42, 43 },
	{ 41, 43 },
	{ 43 },
	{ 40, 42 },
	{ 44, 45, 46, 47 },
	{ 44, 45, 47 },
	{ 44, 46, 47 },
	{ 45, 46, 47 },
	{ 48, 49 },
	{ 49, 51 },
	{ 49 },
	{ 49, 50 },
	{ 55 },
	{ 53, 54, 55 },
	{ 52, 53, 54, 55 },
	{ 52, 55 },
	{ 56 },
	{ 56, 57, 58, 59 },
	{ 57, 58, 59 },
	{ 56, 57, 58 },
	{ 60, 61, 62, 63 },
	{ 60, 61, 62, 63 },
	{ 60, 61, 62, 63 },
	{ 61, 63 },
	{ 65, 67 },
	{ 65, 66 },
	{ 64, 65, 66 },
	{ 64, 65 },
	{ 68 },
	{ 70, 71 },
	{ 71 },
	{ 69 },
	{ 72, 74, 75 },
	{ 73, 74, 75 },
	{ 74, 75 },
	{ 72, 73, 75 },
	{ 76, 77, 79 },
	{ 78, 79 },
	{ 76, 77, 79 },
	{ 76, 77 },
	{ 80 },
	{ 83 },
	{ 81, 82 },
	{ 81 },
	{ 86, 87 },
	{ 85, 86 },
	{ 86 },
	{ 84 },
	{ 88, 90, 91 },
	{ 88, 89, 90, 91 },
	{ 90, 91 },
	{ 88 },
	{ 93 },
	{ 92, 93 },
	{ 93, 94 },
	{ 92, 93, 94, 95 },
	{ 99 },
	{ 96 },
	{ 97, 98 },
	{ 97 },
	{ 100 },
	{ 100 },
	{ 100, 101 },
	{ 101 },
	{  },
	{  } ];
